p cnf 19 22
-3 3 4 5 10 17 19 0
-16 -13 16 13 0
-10 -8 -4 -14 -16 -2 -12 -6 -7 1 2 3 4 5 6 7 8 9 10 12 13 14 15 16 17 18 19 0
 1 2 3 4 6 7 8 9 11 12 13 15 16 18 19 0
-5 -17 -10 -7 -9 5 7 9 10 14 15 16 17 0
-11 -3 -19 -17 -10 -12 -14 -6 -13 -2 -1 -5 -8 -15 1 2 3 4 5 6 7 8 9 10 11 12 13 14 15 16 17 18 19 0
 1 17 18 4 6 0
 1 2 3 18 5 6 14 0
-11 -8 -2 -7 -17 -18 -1 -9 -14 -10 -16 -4 1 2 4 5 6 7 8 9 10 11 12 14 15 16 17 18 19 0
-7 -4 -13 -15 7 4 13 15 0
-1 -6 -10 -7 1 2 3 4 5 6 7 8 10 11 12 13 14 15 16 17 18 19 0
-15 -8 -19 8 10 13 15 19 0
-5 -12 -19 -1 -18 -4 1 3 4 5 7 9 10 12 18 19 0
-4 -1 -10 -2 -13 -3 -12 -18 -8 -6 -17 -5 1 2 3 4 5 6 7 8 9 10 11 12 13 14 15 16 17 18 19 0
-11 -16 1 2 3 4 5 6 7 8 10 11 12 13 14 15 16 17 18 19 0
-4 -1 -3 -2 -17 -16 -13 -18 1 2 3 4 8 13 14 16 17 18 0
-2 1 2 3 4 5 6 7 8 10 11 12 13 14 15 16 17 18 19 0
-17 -11 -8 -3 -1 1 2 3 4 7 8 9 10 11 13 14 17 18 19 0
-5 -15 1 2 3 4 5 8 10 11 12 14 15 17 0
 16 3 19 5 15 0
-10 -11 -17 -12 -18 -2 1 2 3 4 5 6 7 9 10 11 12 17 18 0
